
Gurobi 6.5.2 (linux64) logging started Tue Sep  6 10:06:18 2016

Optimize a model with 41 rows, 115 columns and 265 nonzeros
Coefficient statistics:
  Matrix range    [1e+00, 2e+00]
  Objective range [7e+00, 1e+02]
  Bounds range    [1e+00, 1e+00]
  RHS range       [1e+00, 1e+00]
Presolve removed 15 rows and 5 columns
Presolve time: 0.00s
Presolved: 26 rows, 110 columns, 224 nonzeros
Variable types: 0 continuous, 110 integer (110 binary)
Found heuristic solution: objective 576.0000000

Root relaxation: objective 4.635000e+02, 24 iterations, 0.00 seconds

    Nodes    |    Current Node    |     Objective Bounds      |     Work
 Expl Unexpl |  Obj  Depth IntInf | Incumbent    BestBd   Gap | It/Node Time

     0     0  463.50000    0    4  576.00000  463.50000  19.5%     -    0s
H    0     0                     568.0000000  463.50000  18.4%     -    0s
     0     0  474.00000    0    4  568.00000  474.00000  16.5%     -    0s
     0     0  480.50000    0   12  568.00000  480.50000  15.4%     -    0s
     0     0  481.00000    0   13  568.00000  481.00000  15.3%     -    0s
H    0     0                     498.0000000  481.00000  3.41%     -    0s
     0     0  481.00000    0    2  498.00000  481.00000  3.41%     -    0s
     0     0  481.00000    0   10  498.00000  481.00000  3.41%     -    0s
     0     0  481.33333    0   13  498.00000  481.33333  3.35%     -    0s
     0     0  482.66667    0   15  498.00000  482.66667  3.08%     -    0s
     0     0  483.14286    0   16  498.00000  483.14286  2.98%     -    0s
     0     0  483.50000    0   16  498.00000  483.50000  2.91%     -    0s
     0     0  484.38889    0   21  498.00000  484.38889  2.73%     -    0s
     0     0  485.28571    0   17  498.00000  485.28571  2.55%     -    0s
     0     0  487.00000    0   14  498.00000  487.00000  2.21%     -    0s
     0     0  487.33333    0   21  498.00000  487.33333  2.14%     -    0s

Cutting planes:
  Gomory: 2
  Cover: 6
  MIR: 2
  Zero half: 2
  Mod-K: 1
  Lazy constraints: 1

Explored 0 nodes (94 simplex iterations) in 0.01 seconds
Thread count was 8 (of 8 available processors)

Optimal solution found (tolerance 1.00e-04)
Best objective 4.980000000000e+02, best bound 4.980000000000e+02, gap 0.0%
